(declare-const in0 Int)
(declare-const in2 Int)
(declare-const in1 Int)
(declare-const in4 Int)
(declare-const in3 Int)
(declare-const in6 Int)
(declare-const in5 Int)
(declare-const in8 Int)
(declare-const in7 Int)
(declare-const in11 Int)
(declare-const in10 Int)
(declare-const in9 Int)
(declare-const in13 Int)
(declare-const in12 Int)

(assert (and (and (and (and (and (and (and (and (and (and (and (and (and (and (and (and (and (and (and (and (and (and (and (and (and (and (and (not ( = in0 65))  ( =  in0 66)) (not ( = in1 69)))  ( =  in1 70)) (not ( = in2 73))) (not ( = in2 74))) (not ( = in3 65)))  ( =  in3 66)) (not ( = in4 69)))  ( =  in4 70)) (not ( = in5 73))) (not ( = in5 74))) (not ( = in6 65)))  ( =  in6 66)) (not ( = in7 69)))  ( =  in7 70)) (not ( = in8 73))) (not ( = in8 74))) (not ( = in9 65)))  ( =  in9 66)) (not ( = in10 69)))  ( =  in10 70)) (not ( = in11 73))) (not ( = in11 74))) (not ( = in12 65)))  ( =  in12 66)) (not ( = in13 69)))  ( =  in13 70)))

(check-sat)
(get-model)